Total weight: 834.3404777038312
Route 1: 0 22 27 30 93 5 75 2 1 7 4 89 65 49 55 58 60 28 26 23 18 17 19 16 14 12 15 13 25 9 11 10 8 21 0 
Route 2: 0 20 24 29 6 32 33 31 35 37 38 39 36 34 54 53 56 59 57 40 44 46 45 51 50 52 47 42 41 43 48 0 
Route 3: 0 67 74 72 61 64 62 63 99 100 97 92 94 95 98 3 91 88 86 84 83 82 85 76 71 70 73 80 79 81 78 77 96 87 90 0 
Route 4: 0 66 69 68 0 
